(declare-const X String)
; Keylogger-Pro\s+isUser-Agent\x3A
(assert (str.in_re X (re.++ (str.to_re "Keylogger-Pro") (re.+ (re.union (str.to_re " ") (str.to_re "\u{9}") (str.to_re "\u{a}") (str.to_re "\u{c}") (str.to_re "\u{d}"))) (str.to_re "isUser-Agent:\u{a}"))))
; ^\d(\d)?(\d)?$
(assert (not (str.in_re X (re.++ (re.range "0" "9") (re.opt (re.range "0" "9")) (re.opt (re.range "0" "9")) (str.to_re "\u{a}")))))
; Xtrawww\x2Einstafinder\x2EcomsearchHost\x3A
(assert (not (str.in_re X (str.to_re "Xtrawww.instafinder.comsearchHost:\u{a}"))))
; www\x2Ericercadoppia\x2Ecom[^\n\r]*xml\s+User-Agent\x3A
(assert (not (str.in_re X (re.++ (str.to_re "www.ricercadoppia.com") (re.* (re.union (str.to_re "\u{a}") (str.to_re "\u{d}"))) (str.to_re "xml") (re.+ (re.union (str.to_re " ") (str.to_re "\u{9}") (str.to_re "\u{a}") (str.to_re "\u{c}") (str.to_re "\u{d}"))) (str.to_re "User-Agent:\u{a}")))))
(check-sat)

(exit)
